(declare-const a Bool)
(declare-const b Bool)
(declare-const c Bool)
(declare-const d Bool)
(declare-const e Bool)
(declare-const f Bool)
(declare-const g Bool)
(declare-const h Bool)
(declare-const i Bool)
(declare-const j Bool)
(declare-const k Bool)
(declare-const l Bool)

(assert (or a b c d e f g h i j k l))
